centroides = 0;
nNurses = 130;
hours = 49;
demand = [6 13 32 2 26 30 13 30 1 14 5 30 25 30 12 20 0 21 19 23 11 15 4 3 6 21 15 28 9 10 31 20 26 15 23 1 7 13 22 20 28 17 2 5 24 5 10 1 31];
minHours = 23;
maxHours = 28;
maxConsec = 5;
maxPresence = 48;